pymatgen with grid density = 817 / number of atoms
0
Gamma
4 2 3
