Ni4 P4 S12
1.0
   0.0000000000000000    5.8195499999999996    0.0000000000000000
  10.0840420000000002    0.0000000000000000    0.0000000000000000
   0.0000000000000000   -1.9263320000000006   -6.6214299999999993
Ni P S
4 4 12
direct
   0.5000000000000000    0.8331320000000000    0.0000000000000000 Ni2+
   0.0000000000000000    0.6668680000000000    0.0000000000000000 Ni2+
   0.0000000000000000    0.3331320000000000    0.0000000000000000 Ni2+
   0.5000000000000000    0.1668680000000000    0.0000000000000000 Ni2+
   0.9447860000000000    0.0000000000000000    0.8351189999999999 P4+
   0.0552140000000000    0.0000000000000000    0.1648810000000001 P4+
   0.4447860000000000    0.5000000000000000    0.8351189999999999 P4+
   0.5552139999999999    0.5000000000000000    0.1648810000000001 P4+
   0.7508305000000000    0.8271215000000001    0.7707690000000000 S2-
   0.2491695000000000    0.8271215000000001    0.2292310000000000 S2-
   0.7304790000000001    0.0000000000000000    0.2293460000000000 S2-
   0.2695209999999999    0.0000000000000000    0.7706540000000000 S2-
   0.2508305000000000    0.6728784999999999    0.7707690000000000 S2-
   0.7491695000000000    0.6728784999999999    0.2292310000000000 S2-
   0.2508305000000000    0.3271215000000001    0.7707690000000000 S2-
   0.7491695000000000    0.3271215000000001    0.2292310000000000 S2-
   0.2304790000000001    0.5000000000000000    0.2293460000000000 S2-
   0.7695209999999999    0.5000000000000000    0.7706540000000000 S2-
   0.7508305000000000    0.1728784999999999    0.7707690000000000 S2-
   0.2491695000000000    0.1728784999999999    0.2292310000000000 S2-
