pymatgen with grid density = 716 / number of atoms
0
Gamma
2 3 3
