Cr4 P4 S16
1.0
   0.0000000000000000   10.8889600000000009    0.0000000000000000
   7.3342020000000003    0.0000000000000000    0.0000000000000000
   0.0000000000000000   -0.2273049999999998   -6.6661120000000000
Cr P S
4 4 16
direct
   0.5000000000000000    0.7546700000000000    0.0000000000000000 Cr3+
   0.5000000000000000    0.2453300000000000    0.0000000000000000 Cr3+
   0.0000000000000000    0.2546700000000000    0.0000000000000000 Cr3+
   0.0000000000000000    0.7453300000000000    0.0000000000000000 Cr3+
   0.2973529999999999    0.0000000000000000    0.1552469999999998 P5+
   0.7026470000000001    0.0000000000000000    0.8447530000000002 P5+
   0.7973529999999998    0.5000000000000000    0.1552469999999998 P5+
   0.2026470000000001    0.5000000000000000    0.8447530000000002 P5+
   0.6333464999999999    0.7672895000000000    0.7218239999999999 S2-
   0.3666535000000001    0.7672895000000000    0.2781760000000001 S2-
   0.3666535000000001    0.2327105000000000    0.2781760000000001 S2-
   0.6333464999999999    0.2327105000000000    0.7218239999999999 S2-
   0.1049259999999997    0.0000000000000000    0.1769219999999998 S2-
   0.8950740000000003    0.0000000000000000    0.8230780000000002 S2-
   0.6290529999999999    0.0000000000000000    0.1315479999999998 S2-
   0.3709470000000001    0.0000000000000000    0.8684520000000002 S2-
   0.1333464999999999    0.2672895000000000    0.7218239999999999 S2-
   0.8666535000000000    0.2672895000000000    0.2781760000000001 S2-
   0.8666535000000000    0.7327105000000000    0.2781760000000001 S2-
   0.1333464999999999    0.7327105000000000    0.7218239999999999 S2-
   0.6049259999999999    0.5000000000000000    0.1769219999999998 S2-
   0.3950740000000003    0.5000000000000000    0.8230780000000002 S2-
   0.1290529999999999    0.5000000000000000    0.1315479999999998 S2-
   0.8709470000000001    0.5000000000000000    0.8684520000000002 S2-
